rehearsal = [[1,1,0,1,0,0,1,0,1,1], [1,0,1,0,0,0,1,0,0,1], [0,0,1,0,0,1,1,0,1,1], [1,1,0,0,0,0,0,1,1,0], [1,1,0,1,0,0,0,0,0,0], [0,0,0,1,0,1,1,0,0,1], [1,0,0,1,1,1,1,0,0,0], [0,0,1,1,0,1,0,1,0,1], [0,1,0,0,1,1,0,1,1,0], [1,1,0,0,1,0,1,1,1,0], [1,1,1,0,0,1,0,0,0,1], [1,1,0,0,1,0,1,1,1,1], [1,1,1,0,1,0,1,1,1,1], [0,0,1,1,0,0,0,0,1,1], [0,0,1,1,0,0,1,1,1,0], [1,0,1,0,1,0,0,1,0,1], [1,0,0,0,1,1,1,0,1,1], [1,1,0,1,1,1,0,1,1,0], [0,1,1,1,0,0,1,0,1,1], [0,1,1,0,1,0,0,1,1,1], [1,1,0,1,1,1,1,0,0,1], [1,1,0,1,0,0,0,1,1,1], [0,1,0,1,1,0,1,1,0,0], [0,1,0,1,0,1,0,0,1,1], [0,0,0,1,1,1,1,0,0,0]];
permutations = [9,8,3,2,1,10,6,4,7,5];